certificates/rado_a15_c121_N28.cnf
c Rad2 upper bound instance: x1 + 15*x2 - x3 = 121, interval [1,28]
p cnf 28 106
1 9 15 0
-1 -9 -15 0
1 2 8 0
-1 -2 -8 0
2 9 16 0
-2 -9 -16 0
2 3 8 0
-2 -3 -8 0
3 9 17 0
-3 -9 -17 0
3 4 8 0
-3 -4 -8 0
4 9 18 0
-4 -9 -18 0
4 5 8 0
-4 -5 -8 0
5 9 19 0
-5 -9 -19 0
5 6 8 0
-5 -6 -8 0
6 9 20 0
-6 -9 -20 0
6 7 8 0
-6 -7 -8 0
7 9 21 0
-7 -9 -21 0
7 8 0
-7 -8 0
8 9 22 0
-8 -9 -22 0
8 9 0
-8 -9 0
9 23 0
-9 -23 0
8 9 10 0
-8 -9 -10 0
9 10 24 0
-9 -10 -24 0
8 10 11 0
-8 -10 -11 0
9 11 25 0
-9 -11 -25 0
8 11 12 0
-8 -11 -12 0
9 12 26 0
-9 -12 -26 0
8 12 13 0
-8 -12 -13 0
9 13 27 0
-9 -13 -27 0
8 13 14 0
-8 -13 -14 0
9 14 28 0
-9 -14 -28 0
8 14 15 0
-8 -14 -15 0
8 15 16 0
-8 -15 -16 0
1 7 17 0
-1 -7 -17 0
8 16 17 0
-8 -16 -17 0
2 7 18 0
-2 -7 -18 0
8 17 18 0
-8 -17 -18 0
3 7 19 0
-3 -7 -19 0
8 18 19 0
-8 -18 -19 0
4 7 20 0
-4 -7 -20 0
8 19 20 0
-8 -19 -20 0
5 7 21 0
-5 -7 -21 0
8 20 21 0
-8 -20 -21 0
6 7 22 0
-6 -7 -22 0
8 21 22 0
-8 -21 -22 0
7 23 0
-7 -23 0
8 22 23 0
-8 -22 -23 0
7 8 24 0
-7 -8 -24 0
8 23 24 0
-8 -23 -24 0
7 9 25 0
-7 -9 -25 0
8 24 25 0
-8 -24 -25 0
7 10 26 0
-7 -10 -26 0
8 25 26 0
-8 -25 -26 0
7 11 27 0
-7 -11 -27 0
8 26 27 0
-8 -26 -27 0
7 12 28 0
-7 -12 -28 0
8 27 28 0
-8 -27 -28 0
