certificates/rado_a15_c121_N28.drat
-27 -28 0
d -27 -8 -28 0
13 -28 0
-9 -28 0
-28 0
9 0
-8 0
-23 0
7 0
27 0
24 0
22 0
-11 0
-21 0
-25 0
-13 0
-10 0
-6 0
12 0
0
